c Reduced graph for p20 generated by Cyril Grelier
p edge 23 83
e 1 2
e 1 3
e 1 4
e 1 7
e 1 10
e 1 12
e 1 15
e 1 16
e 2 3
e 2 5
e 2 8
e 2 13
e 2 15
e 2 17
e 2 21
e 3 6
e 3 9
e 3 11
e 3 14
e 3 15
e 3 22
e 4 5
e 4 6
e 4 7
e 4 10
e 4 12
e 4 16
e 4 18
e 5 6
e 5 8
e 5 13
e 5 17
e 5 18
e 5 21
e 6 9
e 6 11
e 6 14
e 6 18
e 6 22
e 7 8
e 7 9
e 7 10
e 7 12
e 7 16
e 7 19
e 8 9
e 8 13
e 8 17
e 8 19
e 8 21
e 9 11
e 9 14
e 9 19
e 9 22
e 10 11
e 10 12
e 10 16
e 10 20
e 11 14
e 11 20
e 11 22
e 12 13
e 12 14
e 12 16
e 13 14
e 13 17
e 13 21
e 14 22
e 15 18
e 15 19
e 15 20
e 15 23
e 16 17
e 16 23
e 17 21
e 17 23
e 18 19
e 18 20
e 18 23
e 19 20
e 19 23
e 20 23
e 21 22
